webassembly/ejemplos_dzn/folder12_json_92.dzn
TERM = { '.', 's(5)', 'in_10', 'in_1', 'in_6', 'in_9', 'in_0', 'in_12', 's(4)', 'in_3', 's(1)', 'in_11', 's(2)', 'in_2', 'in_8', 's(0)', 's(3)', 'local_0', 'local_1', 'in_4', 'in_7', 'in_5'};
null = '.';
s = 12;
n = 18;
ndeps = 5;
max_registers_sz = 5;
NR = 2;
registers = [|'local_0', 's(4)', |'local_1', 's(0)'|];
dependencies = [|'i32.load8_u_0', 'i32.store8_8', |'i32.store8_8', 'call[function_index(0)]_9', |'call[function_index(0)]_9', 'i32.store_10', |'i32.store_10', 'i32.load8_u_11', |'i32.load16_s_3', 'i32.store8_8'|];
GET_ENUM = { GET1, GET2, GET3, GET4, GET5, GET6, GET7};
SET_ENUM = { SET1, SET2, SET3, SET4, SET5, SET6, SET7};
TEE_ENUM = { TEE1, TEE2, TEE3, TEE4, TEE5, TEE6, TEE7};
N = 9;
OP = { 'call[function_index(0)]_9', 'i32.load8_u_0', 'i32.load16_s_3', 'i32.store8_8', 'i32.store_10', 'i32.load8_u_11', 'i32.sub_0', 'i32.add_0', 'i32.add_1' };
in_ops = [3, 1, 1, 2, 2, 1, 2, 2, 2 ];
out_ops = [0, 1, 1, 0, 0, 1, 1, 1, 1 ];
in1 = ['in_7', 'in_0', 'in_1', 'in_5', 'in_10', 'in_12', 's(1)', 's(2)', 's(3)' ];
in2 = ['in_8', '.', '.', 'in_6', 'in_11', '.', 'in_2', 'in_3', 'in_4' ];
in3 = ['in_9', '.', '.', '.', '.', '.', '.', '.', '.' ];
out1 = ['.', 's(0)', 's(1)', '.', '.', 's(5)', 's(2)', 's(3)', 's(4)' ];
out2 = ['.', '.', '.', '.', '.', '.', '.', '.', '.' ];
out3 = ['.', '.', '.', '.', '.', '.', '.', '.', '.' ];
comm = [false, false, false, false, false, false, false, true, true ];
gas = [1, 1, 1, 1, 1, 1, 1, 1, 1 ];
sz = [1, 1, 1, 1, 1, 1, 1, 1, 1 ];
stor = [true, false, false, true, true, false, false, false, false ];
lb = [ 1, 1, 1, 1, 1, 1, 1, 1, 1 ];
ub = [ 12, 12, 12, 12, 12, 12, 12, 12, 12 ];
startstack = [ 'in_0', 'in_1', 'in_2', 'in_3', 'in_4', 'in_5', 'in_6', 'in_7', 'in_8', 'in_9', 'in_10', 'in_11', 'in_12', null, null, null, null, null ];
endstack = [ 's(5)', null, null, null, null, null, null, null, null, null, null, null, null, null, null, null, null, null ];
